data;

param num_top:=6;

#nodes and edges of the physical network
param n := 10;

set E := (1,2) (1,3) (1,7) (2,4) (2,7) (3,5) (4,8) (5,6) (5,7) (6,7) (6,9) (7,8) (7,9) (8,10) (9,10) ;

#nodes and edges of the virtual networks
set Nl[1] := 9 4 3 8 6 ;
set Nl[2] := 3 4 8 10 7 ;
set Nl[3] := 10 5 3 7 6 ;
set Nl[4] := 3 9 8 1 2 ;
set Nl[5] := 7 6 8 4 9 ;
set Nl[6] := 8 4 2 7 3 ;

set El[1] := (4,9) (3,4) (3,8) (6,8) (6,9) (3,6) (4,8) (8,9) (4,6) (3,9) ;
set El[2] := (3,4) (4,8) (8,10) (7,10) (3,7) (4,10) (4,7) (7,8) (3,8) (3,10) ;
set El[3] := (5,10) (3,5) (3,7) (6,7) (6,10) (3,10) (5,7) (5,6) (7,10) (3,6) ;
set El[4] := (3,9) (8,9) (1,8) (1,2) (2,3) (2,9) (1,9) (3,8) (1,3) (2,8) ;
set El[5] := (6,7) (6,8) (4,8) (4,9) (7,9) (7,8) (4,6) (8,9) (6,9) (4,7) ;
set El[6] := (4,8) (2,4) (2,7) (3,7) (3,8) (2,8) (2,3) (7,8) (3,4) (4,7) ;
